///////////////////////////////////////
//
//     Quiz dualidade
//
//     Problema da dieta
//
//     par de problemas primal e dual
//
///////////////////////////////////////




min:    6 x1 + 8 x2 + 2 x3 + 1 x4 + 9 x5;

nutri1: 1 x1 + 1 x2 + 1 x3        + 2 x5 >=  3;
nutri2: 1 x1 + 4 x2        + 1 x4 + 1 x5 >=  5;
nutri3: 2 x1 + 2 x2               + 2 x5 >=  4;

/*

max:    3 y1 + 5 y2 + 4 y3;
racao1: 1 y1 + 1 y2 + 2 y3 <= 6;
racao2: 1 y1 + 4 y2 + 2 y3 <= 8;
racao3: 1 y1               <= 2;
racao4:        1 y2        <= 1;
racao5: 2 y1 + 1 y2 + 2 y3 <= 9;

*/